NAME : ct_6_n_3_k10_t_90
COMMENT : (ct_6_n_3_k10_t_90, Min no of trucks: 3, Optimal value: 700.35680695377, Split: Yes)
TYPE : SDVRP
DIMENSION : 7
EDGE_WEIGHT_TYPE : EUC_2D
CAPACITY : 10
NODE_COORD_SECTION
1 100 100
2 159 30
3 34 131
4 90 45
5 122 92
6 42 42
7 124 142
DEMAND_SECTION
1 0
2 4.6
3 5.7
4 3.4
5 3.0
6 4.1
7 6.2
DEPOT_SECTION
 1
EOF